! pbe0 d3bj aug-cc-PVTZ RIJCOSX Opt
%maxcore 4000
%basis
 AuxJ "aug-cc-PVTZ/JK"
 AuxC "aug-cc-PVTZ/C"
 newGTO H "cc-PVTZ" end
 newAuxJGTO H "cc-PVTZ/JK" end
 newAuxCGTO H "cc-PVTZ/C" end
end
%cpcm
 SMD true
 SMDsolvent "chloroform"
end
%pal nprocs 4 end
* xyz 0 1
C          2.63170        2.93990        1.16310
C          1.32380        2.62580        1.54390
C          0.74590        1.44980        1.14140
C          1.44530        0.52960        0.33820
C          2.80920        0.79650        0.06560
C          3.36580        2.02840        0.45190
C          3.61690       -0.21340       -0.52300
C          3.12690       -1.46470       -0.69130
C          1.75930       -1.75730       -0.44100
C          1.28950       -3.08870       -0.51880
C         -0.00240       -3.37950       -0.21260
C         -0.94380       -2.34060       -0.02890
C         -2.30870       -2.64690        0.21990
C         -3.24230       -1.66890        0.29770
C         -2.90210       -0.32930       -0.03160
C         -3.89910        0.65190       -0.17360
C         -3.59490        1.90070       -0.64630
C         -2.28250        2.19220       -1.02970
C         -1.28630        1.26620       -0.85920
C         -1.55140        0.00340       -0.29700
C         -0.53090       -0.99550       -0.11270
C          0.87200       -0.71840       -0.09410
H          3.06750        3.88200        1.46180
H          0.76880        3.31200        2.16650
H         -0.25440        1.21190        1.46850
H          4.39820        2.22940        0.20270
H          4.64570        0.01930       -0.75770
H          3.76360       -2.26820       -1.03360
H          1.99210       -3.87110       -0.76710
H         -0.34570       -4.40290       -0.16360
H         -2.57920       -3.68400        0.35910
H         -4.27190       -1.89760        0.53290
H         -4.91940        0.39010        0.06890
H         -4.36680        2.64770       -0.75860
H         -2.05490        3.15160       -1.47070
H         -0.28510        1.49890       -1.18690
*


$new_job
! b2plyp aug-cc-PVTZ RIJCOSX SP
%maxcore 4000
%basis
 AuxJ "aug-cc-PVTZ/JK"
 AuxC "aug-cc-PVTZ/C"
 newGTO H "cc-PVTZ" end
 newAuxJGTO H "cc-PVTZ/JK" end
 newAuxCGTO H "cc-PVTZ/C" end
end
%cpcm
 SMD true
 SMDsolvent "chloroform"
end
%pal nprocs 4 end
%tddft
 nroots 10
 maxdim 7
end
* xyzfile 0 1
