! pbe0 d3bj aug-cc-PVTZ RIJCOSX Opt
%maxcore 4000
%basis
 AuxJ "aug-cc-PVTZ/JK"
 AuxC "aug-cc-PVTZ/C"
 newGTO H "cc-PVTZ" end
 newAuxJGTO H "cc-PVTZ/JK" end
 newAuxCGTO H "cc-PVTZ/C" end
end
%cpcm
 SMD true
 SMDsolvent "dimethylsulfoxide"
end
%pal nprocs 4 end
* xyz 0 1
C          4.91900        0.91760       -0.09170
C          4.29310       -0.35910       -0.64060
C          2.77480       -0.26960       -0.77590
C          2.07810       -0.17250        0.58120
N          0.63210       -0.13660        0.42820
C         -0.04710       -1.32470        0.39580
S          0.76560       -2.76450        0.48790
C         -1.49030       -1.30430        0.27150
C         -2.23420       -2.47290        0.26980
C         -3.62250       -2.43400        0.15270
C         -4.28050       -1.23630        0.03590
C         -3.56480       -0.02210        0.03240
C         -4.20150        1.22970       -0.08680
C         -3.46810        2.38860       -0.08850
C         -2.07940        2.35000        0.02460
C         -1.41180        1.14210        0.14420
C         -2.15300       -0.06140        0.15230
C          0.03070        1.08210        0.26260
S          0.93500        2.46720        0.18770
H          6.00350        0.85470       -0.13960
H          4.63750        1.08160        0.94510
H          4.59860        1.77830       -0.67420
H          4.54860       -1.20260        0.00410
H          4.70950       -0.56110       -1.62980
H          2.40790       -1.15970       -1.29250
H          2.51280        0.60560       -1.37480
H          2.33270       -1.03960        1.19370
H          2.37890        0.73960        1.09740
H         -1.72410       -3.41940        0.36240
H         -4.17640       -3.36050        0.15470
H         -5.35630       -1.20550       -0.05570
H         -5.27740        1.25880       -0.17690
H         -3.96170        3.34430       -0.17890
H         -1.50940        3.26630        0.02140
*


$new_job
! b2plyp aug-cc-PVTZ RIJCOSX SP
%maxcore 4000
%basis
 AuxJ "aug-cc-PVTZ/JK"
 AuxC "aug-cc-PVTZ/C"
 newGTO H "cc-PVTZ" end
 newAuxJGTO H "cc-PVTZ/JK" end
 newAuxCGTO H "cc-PVTZ/C" end
end
%cpcm
 SMD true
 SMDsolvent "dimethylsulfoxide"
end
%pal nprocs 4 end
%tddft
 nroots 10
 maxdim 7
end
* xyzfile 0 1
