! pbe0 d3bj aug-cc-PVTZ RIJCOSX Opt
%maxcore 4000
%basis
 AuxJ "aug-cc-PVTZ/JK"
 AuxC "aug-cc-PVTZ/C"
 newGTO H "cc-PVTZ" end
 newAuxJGTO H "cc-PVTZ/JK" end
 newAuxCGTO H "cc-PVTZ/C" end
end
%cpcm
 SMD true
 SMDsolvent "cyclohexane"
end
%pal nprocs 4 end
* xyz 0 1
C          6.69350        0.11820        0.59350
O          5.74800       -0.61580        1.33240
C          4.42880       -0.46170        1.03980
C          3.53990       -1.21180        1.81540
C          2.18530       -1.12700        1.60170
C          1.65930       -0.31520        0.58830
C          0.22180       -0.27400        0.40350
C         -0.46870       -0.13760       -0.74790
C          0.13950       -0.07320       -2.11490
C         -1.90760       -0.08800       -0.66660
N         -2.59110       -0.14930        0.42050
C         -3.92880       -0.06540        0.21110
C         -4.91610       -0.10740        1.19380
C         -6.23700       -0.00740        0.81560
C         -6.59540        0.13360       -0.52430
C         -5.63630        0.17690       -1.51720
C         -4.30720        0.07720       -1.14510
S         -2.89030        0.09520       -2.14380
C          2.55410        0.44560       -0.16220
C          3.91830        0.38040        0.05790
H          7.66570       -0.16890        0.99110
H          6.65180       -0.12940       -0.47220
H          6.55530        1.19670        0.72210
H          3.94610       -1.84860        2.58540
H          1.51060       -1.71040        2.21060
H         -0.36530       -0.40210        1.30380
H         -0.47290       -0.63270       -2.82100
H          0.18970        0.95680       -2.46900
H          1.14090       -0.49480       -2.10960
H         -4.62690       -0.21660        2.22680
H         -7.01120       -0.03840        1.56780
H         -7.63870        0.20990       -0.79120
H         -5.90940        0.28520       -2.55550
H          2.18230        1.13760       -0.90090
H          4.57220        0.99630       -0.53990
*


$new_job
! b2plyp aug-cc-PVTZ RIJCOSX SP
%maxcore 4000
%basis
 AuxJ "aug-cc-PVTZ/JK"
 AuxC "aug-cc-PVTZ/C"
 newGTO H "cc-PVTZ" end
 newAuxJGTO H "cc-PVTZ/JK" end
 newAuxCGTO H "cc-PVTZ/C" end
end
%cpcm
 SMD true
 SMDsolvent "cyclohexane"
end
%pal nprocs 4 end
%tddft
 nroots 10
 maxdim 7
end
* xyzfile 0 1
