! pbe0 d3bj aug-cc-PVTZ RIJCOSX Opt
%maxcore 4000
%basis
 AuxJ "aug-cc-PVTZ/JK"
 AuxC "aug-cc-PVTZ/C"
 newGTO H "cc-PVTZ" end
 newAuxJGTO H "cc-PVTZ/JK" end
 newAuxCGTO H "cc-PVTZ/C" end
end
%cpcm
 SMD true
 SMDsolvent "acetonitrile"
end
%pal nprocs 4 end
* xyz 0 1
C         -2.98050        1.65900       -1.00620
C         -2.85350        0.98130        0.36080
S         -4.10100        1.73680        1.47660
C         -2.86520        2.63050        2.43220
O         -3.15620        3.40390        3.29910
C         -1.54690        2.21140        1.98720
C         -1.51950        1.32690        0.98010
C         -0.39990        0.61660        0.44050
N          0.91710        0.89000        0.55130
C          1.55070       -0.05090       -0.12220
C          2.98660       -0.12550       -0.25350
C          3.76820        0.84530        0.38350
C          5.13930        0.81760        0.29140
C          5.77100       -0.18610       -0.44460
O          7.12090       -0.17810       -0.51010
C          5.00080       -1.15460       -1.08260
C          3.62440       -1.12520       -0.98840
N          0.67000       -0.94110       -0.67800
C         -0.58540       -0.54200       -0.32260
C         -1.86230       -1.08400       -0.62140
C         -2.22670       -1.95470       -1.58060
C         -3.65290       -2.16510       -1.74310
O         -4.21660       -2.88610       -2.51760
S         -4.52530       -1.10060       -0.58820
C         -2.98210       -0.54950        0.24240
C         -2.93040       -1.21770        1.61930
H         -3.96610        1.46370       -1.42200
H         -2.85380        2.73370       -0.89830
H         -2.22410        1.28400       -1.69360
H         -0.67330        2.58370        2.49340
H          3.26510        1.61380        0.94710
H          5.74970        1.56040        0.77870
H          7.43980       -0.91630       -1.04450
H          5.48580       -1.93410       -1.65530
H          3.05640       -1.89080       -1.49650
H          0.89810       -1.75520       -1.22320
H         -1.55510       -2.45880       -2.25520
H         -3.77360       -0.88300        2.21840
H         -2.00620       -0.96150        2.13510
H         -2.98800       -2.29850        1.51070
*


$new_job
! b2plyp aug-cc-PVTZ RIJCOSX SP
%maxcore 4000
%basis
 AuxJ "aug-cc-PVTZ/JK"
 AuxC "aug-cc-PVTZ/C"
 newGTO H "cc-PVTZ" end
 newAuxJGTO H "cc-PVTZ/JK" end
 newAuxCGTO H "cc-PVTZ/C" end
end
%cpcm
 SMD true
 SMDsolvent "acetonitrile"
end
%pal nprocs 4 end
%tddft
 nroots 10
 maxdim 7
end
* xyzfile 0 1
