! pbe0 d3bj aug-cc-PVTZ RIJCOSX Opt
%maxcore 4000
%basis
 AuxJ "aug-cc-PVTZ/JK"
 AuxC "aug-cc-PVTZ/C"
 newGTO H "cc-PVTZ" end
 newAuxJGTO H "cc-PVTZ/JK" end
 newAuxCGTO H "cc-PVTZ/C" end
end
%cpcm
 SMD true
 SMDsolvent "toluene"
end
%pal nprocs 4 end
* xyz 0 1
N          5.78160        2.40170       -1.95040
C          4.82420        1.87900       -1.59180
C          3.64770        1.24540       -1.16190
C          3.24370        1.29450        0.11720
C          2.07240        0.63120        0.66090
C          2.21460        0.02390        1.91220
C          1.21090       -0.73810        2.46320
C         -0.00060       -0.91310        1.78930
C         -1.04360       -1.72640        2.31690
C         -2.21800       -1.87470        1.66130
C         -2.45790       -1.21090        0.42320
C         -3.66480       -1.34380       -0.26580
C         -3.87490       -0.67960       -1.46030
C         -2.89210        0.13380       -1.99320
C         -1.66860        0.29240       -1.34000
C         -0.64700        1.15100       -1.83600
C          0.54250        1.27390       -1.20100
C          0.83410        0.54420       -0.01070
C         -0.19900       -0.25030        0.55240
C         -1.43830       -0.39010       -0.12080
H          3.10650        0.69450       -1.91950
H          3.87690        1.79840        0.83890
H          3.15470        0.12850        2.43550
H          1.35690       -1.21640        3.42080
H         -0.86940       -2.22560        3.25960
H         -3.00340       -2.49650        2.06690
H         -4.43860       -1.97510        0.14680
H         -4.81560       -0.79410       -1.97890
H         -3.06430        0.65690       -2.92280
H         -0.84920        1.71900       -2.73310
H          1.27880        1.96680       -1.57870
*


$new_job
! b2plyp aug-cc-PVTZ RIJCOSX SP
%maxcore 4000
%basis
 AuxJ "aug-cc-PVTZ/JK"
 AuxC "aug-cc-PVTZ/C"
 newGTO H "cc-PVTZ" end
 newAuxJGTO H "cc-PVTZ/JK" end
 newAuxCGTO H "cc-PVTZ/C" end
end
%cpcm
 SMD true
 SMDsolvent "toluene"
end
%pal nprocs 4 end
%tddft
 nroots 10
 maxdim 7
end
* xyzfile 0 1
