! pbe0 d3bj aug-cc-PVTZ RIJCOSX Opt
%maxcore 4000
%basis
 AuxJ "aug-cc-PVTZ/JK"
 AuxC "aug-cc-PVTZ/C"
 newGTO H "cc-PVTZ" end
 newAuxJGTO H "cc-PVTZ/JK" end
 newAuxCGTO H "cc-PVTZ/C" end
end
%cpcm
 SMD true
 SMDsolvent "cyclohexane"
end
%pal nprocs 4 end
* xyz 0 1
C          5.53700        0.40640       -0.45200
C          5.02850       -0.51450       -1.38140
C          3.68780       -0.77350       -1.43580
C          2.79240       -0.12090       -0.56220
C          1.40540       -0.36070       -0.60230
C          0.55550        0.28570        0.26170
N         -0.82310        0.03580        0.23080
C         -1.81580        0.99380        0.17540
C         -1.70840        2.37430        0.08430
C         -2.87650        3.10910        0.01670
C         -4.12590        2.49290        0.02860
C         -4.23870        1.11850        0.09260
C         -3.07880        0.35820        0.16190
C         -2.82520       -1.05420        0.21520
C         -3.64870       -2.17200        0.24450
C         -3.06600       -3.42110        0.31940
C         -1.68140       -3.56280        0.38040
C         -0.84130       -2.46620        0.35180
C         -1.42020       -1.20920        0.25220
C          1.07010        1.20520        1.20100
C          2.40900        1.46200        1.24980
C          3.30690        0.81210        0.37620
C          4.69490        1.05520        0.40750
H          6.59960        0.59750       -0.42300
H          5.70800       -1.01750       -2.05380
H          3.29210       -1.48180       -2.14980
H          1.01190       -1.05280       -1.33270
H         -0.74510        2.86110        0.05490
H         -2.81930        4.18560       -0.05120
H         -5.01550        3.10300       -0.02350
H         -5.20620        0.63940        0.08450
H         -4.72210       -2.06040        0.21370
H         -3.68810       -4.30360        0.34060
H         -1.25460       -4.55230        0.45460
H          0.22970       -2.58610        0.41720
H          0.38860        1.68440        1.88800
H          2.80280        2.16410        1.97080
H          5.08090        1.76550        1.12490
*


$new_job
! b2plyp aug-cc-PVTZ RIJCOSX SP
%maxcore 4000
%basis
 AuxJ "aug-cc-PVTZ/JK"
 AuxC "aug-cc-PVTZ/C"
 newGTO H "cc-PVTZ" end
 newAuxJGTO H "cc-PVTZ/JK" end
 newAuxCGTO H "cc-PVTZ/C" end
end
%cpcm
 SMD true
 SMDsolvent "cyclohexane"
end
%pal nprocs 4 end
%tddft
 nroots 10
 maxdim 7
end
* xyzfile 0 1
