! pbe0 d3bj aug-cc-PVTZ RIJCOSX Opt
%maxcore 4000
%basis
 AuxJ "aug-cc-PVTZ/JK"
 AuxC "aug-cc-PVTZ/C"
 newGTO H "cc-PVTZ" end
 newAuxJGTO H "cc-PVTZ/JK" end
 newAuxCGTO H "cc-PVTZ/C" end
end
%cpcm
 SMD true
 SMDsolvent "acetonitrile"
end
%pal nprocs 4 end
* xyz 0 1
C         -2.95840       -3.65090       -0.72040
O         -1.57440       -3.91460       -0.89720
C         -0.62440       -3.01710       -0.72190
N         -0.69150       -1.71990       -0.38480
C          0.61650       -1.24020       -0.32130
C          0.92860        0.07910       -0.01490
C          2.33400        0.50590        0.05860
C          3.22950       -0.14820        0.90080
C          4.54810        0.26220        0.97270
C          4.99080        1.32370        0.20100
C          4.10640        1.97800       -0.64050
C          2.78490        1.57660       -0.70910
C         -0.08890        1.00450        0.22370
C         -0.04280        2.36380        0.58480
C         -1.34590        2.79890        0.71570
C         -2.16950        1.69220        0.44040
O         -3.49480        1.58090        0.43280
C         -4.23880        2.73780        0.74720
N         -1.41440        0.62490        0.15160
B         -1.92840       -0.79510       -0.15260
F         -2.70870       -0.76650       -1.29270
F         -2.66360       -1.25040        0.92540
C          1.49580       -2.29660       -0.65170
C          0.72920       -3.40270       -0.89680
H         -3.45080       -4.60050       -0.92360
H         -3.31140       -2.89320       -1.41870
H         -3.17340       -3.33090        0.29860
H          2.87870       -0.96550        1.51310
H          5.23300       -0.24800        1.63380
H          6.02170        1.64020        0.25550
H          4.44800        2.80420       -1.24650
H          2.09700        2.07550       -1.37520
H          0.84850        2.93990        0.73690
H         -1.67230        3.78470        0.98030
H         -4.01990        3.08550        1.76110
H         -4.03790        3.54370        0.03510
H         -5.28430        2.44410        0.68010
H          2.56330       -2.21700       -0.70700
H          1.04070       -4.38880       -1.17400
*


$new_job
! b2plyp aug-cc-PVTZ RIJCOSX SP
%maxcore 4000
%basis
 AuxJ "aug-cc-PVTZ/JK"
 AuxC "aug-cc-PVTZ/C"
 newGTO H "cc-PVTZ" end
 newAuxJGTO H "cc-PVTZ/JK" end
 newAuxCGTO H "cc-PVTZ/C" end
end
%cpcm
 SMD true
 SMDsolvent "acetonitrile"
end
%pal nprocs 4 end
%tddft
 nroots 10
 maxdim 7
end
* xyzfile 0 1
