! pbe0 d3bj aug-cc-PVTZ RIJCOSX Opt
%maxcore 4000
%basis
 AuxJ "aug-cc-PVTZ/JK"
 AuxC "aug-cc-PVTZ/C"
 newGTO H "cc-PVTZ" end
 newAuxJGTO H "cc-PVTZ/JK" end
 newAuxCGTO H "cc-PVTZ/C" end
end
%cpcm
 SMD true
 SMDsolvent "methanol"
end
%pal nprocs 4 end
* xyz 0 1
O          2.02020       -2.35470       -1.30230
C          1.71270       -1.35690       -0.66640
C          0.33560       -0.97800       -0.44310
C         -0.02930        0.10830        0.28350
N         -1.28850        0.53610        0.55650
C         -2.51800        0.14290        0.05550
C         -2.68720       -0.36280       -1.23400
C         -3.94610       -0.71750       -1.68240
C         -5.05980       -0.57250       -0.87320
C         -4.88010       -0.04390        0.39300
F         -5.95200        0.12470        1.19230
C         -3.63810        0.32000        0.86980
C          0.99220        0.96350        0.96350
O          0.63180        1.87410        1.69000
C          2.39770        0.63880        0.70590
C          3.39610        1.44070        1.25670
C          4.72920        1.15310        1.02810
C          5.07730        0.05810        0.25140
C          4.09230       -0.74710       -0.29590
C          2.74960       -0.46660       -0.07850
H         -0.40310       -1.63990       -0.86850
H         -1.29930        1.25530        1.27880
H         -1.84230       -0.44280       -1.89710
H         -4.06190       -1.10560       -2.68250
H         -6.04620       -0.84740       -1.20860
H         -3.54250        0.72940        1.86350
H          3.10220        2.28680        1.86000
H          5.49690        1.78050        1.45530
H          6.11790       -0.16920        0.07410
H          4.34240       -1.60730       -0.89910
*


$new_job
! b2plyp aug-cc-PVTZ RIJCOSX SP
%maxcore 4000
%basis
 AuxJ "aug-cc-PVTZ/JK"
 AuxC "aug-cc-PVTZ/C"
 newGTO H "cc-PVTZ" end
 newAuxJGTO H "cc-PVTZ/JK" end
 newAuxCGTO H "cc-PVTZ/C" end
end
%cpcm
 SMD true
 SMDsolvent "methanol"
end
%pal nprocs 4 end
%tddft
 nroots 10
 maxdim 7
end
* xyzfile 0 1
