! pbe0 d3bj aug-cc-PVTZ RIJCOSX Opt
%maxcore 4000
%basis
 AuxJ "aug-cc-PVTZ/JK"
 AuxC "aug-cc-PVTZ/C"
 newGTO H "cc-PVTZ" end
 newAuxJGTO H "cc-PVTZ/JK" end
 newAuxCGTO H "cc-PVTZ/C" end
end
%cpcm
 SMD true
 SMDsolvent "acetonitrile"
end
%pal nprocs 4 end
* xyz 0 1
C          6.08440       -0.18070       -1.02370
C          5.50520       -0.72560        0.27650
C          3.97950       -0.78160        0.27340
C          3.34970        0.60980        0.21630
N          1.90050        0.53400        0.29850
C          1.31500        0.57100        1.53160
S          2.24080        0.63860        2.90570
C         -0.12990        0.53890        1.62670
C         -0.76940        0.68930        2.84680
C         -2.15650        0.71390        2.91110
C         -2.91420        0.51040        1.78230
C         -2.31080        0.27790        0.53310
C         -3.06440        0.04510       -0.66470
N         -4.41960       -0.17030       -0.59720
C         -4.96920       -1.15370        0.31150
C         -5.23620        0.02810       -1.77060
C         -2.39380        0.09680       -1.88440
C         -1.02020        0.22180       -1.95060
C         -0.24420        0.31580       -0.80160
C         -0.89710        0.36730        0.45090
C          1.19070        0.38840       -0.86670
S          1.97780        0.28380       -2.32400
H          5.68030       -0.72250       -1.87580
H          5.85210        0.87370       -1.14700
H          7.16650       -0.28970       -1.02830
H          5.84110       -0.11250        1.11550
H          5.88130       -1.73860        0.43590
H          3.63800       -1.28090        1.18340
H          3.63590       -1.36280       -0.58540
H          3.70530        1.21460        1.05280
H          3.60150        1.10110       -0.72410
H         -0.17650        0.82100        3.73860
H         -2.64050        0.89930        3.85800
H         -3.98780        0.57680        1.84920
H         -4.20980       -1.50940        1.00240
H         -5.80520       -0.73320        0.87640
H         -5.34230       -2.01320       -0.25710
H         -5.19740       -0.82080       -2.46430
H         -4.92510        0.93190       -2.29050
H         -6.26940        0.15570       -1.44600
H         -2.93930       -0.02010       -2.80650
H         -0.52720        0.21110       -2.91060
*


$new_job
! b2plyp aug-cc-PVTZ RIJCOSX SP
%maxcore 4000
%basis
 AuxJ "aug-cc-PVTZ/JK"
 AuxC "aug-cc-PVTZ/C"
 newGTO H "cc-PVTZ" end
 newAuxJGTO H "cc-PVTZ/JK" end
 newAuxCGTO H "cc-PVTZ/C" end
end
%cpcm
 SMD true
 SMDsolvent "acetonitrile"
end
%pal nprocs 4 end
%tddft
 nroots 10
 maxdim 7
end
* xyzfile 0 1
