! pbe0 d3bj aug-cc-PVTZ RIJCOSX Opt
%maxcore 4000
%basis
 AuxJ "aug-cc-PVTZ/JK"
 AuxC "aug-cc-PVTZ/C"
 newGTO H "cc-PVTZ" end
 newAuxJGTO H "cc-PVTZ/JK" end
 newAuxCGTO H "cc-PVTZ/C" end
end
%cpcm
 SMD true
 SMDsolvent "dimethylsulfoxide"
end
%pal nprocs 4 end
* xyz 0 1
C          6.28600        0.21300        0.67690
C          5.54530        0.09690       -0.65010
C          4.05430        0.40640       -0.53270
C          3.30720       -0.62220        0.31520
N          1.87280       -0.36220        0.30710
C          1.38800        0.51240        1.26050
O          2.13330        1.02420        2.07440
C         -0.06020        0.77660        1.23750
C         -0.59630        1.67700        2.13520
C         -1.95500        1.98040        2.08660
C         -2.78160        1.33730        1.19730
C         -2.28740        0.36100        0.31160
C         -3.11590       -0.34370       -0.62400
N         -4.48580       -0.22460       -0.55100
C         -5.17410       -0.46410        0.70030
C         -5.29180       -0.55390       -1.70220
C         -2.49930       -1.09080       -1.62220
C         -1.12540       -1.27210       -1.64700
C         -0.31290       -0.70900       -0.67970
C         -0.88700        0.13040        0.29550
C          1.12610       -0.96800       -0.69550
O          1.66450       -1.67950       -1.52290
H          5.96080       -0.55300        1.37530
H          6.10620        1.18640        1.12730
H          7.35660        0.09760        0.52230
H          5.67210       -0.90970       -1.05430
H          5.98510        0.79740       -1.36380
H          3.61180        0.41210       -1.53160
H          3.91670        1.39530       -0.08980
H          3.46030       -1.62440       -0.08980
H          3.63700       -0.57590        1.35360
H          0.06030        2.15730        2.84470
H         -2.35810        2.73220        2.74850
H         -3.82090        1.61970        1.14700
H         -4.46930       -0.51470        1.52560
H         -5.90370        0.32620        0.89480
H         -5.71170       -1.41830        0.65240
H         -5.44140       -1.63420       -1.82400
H         -4.83290       -0.15060       -2.60260
H         -6.26930       -0.08730       -1.57500
H         -3.09480       -1.59060       -2.36870
H         -0.66980       -1.89100       -2.40520
*


$new_job
! b2plyp aug-cc-PVTZ RIJCOSX SP
%maxcore 4000
%basis
 AuxJ "aug-cc-PVTZ/JK"
 AuxC "aug-cc-PVTZ/C"
 newGTO H "cc-PVTZ" end
 newAuxJGTO H "cc-PVTZ/JK" end
 newAuxCGTO H "cc-PVTZ/C" end
end
%cpcm
 SMD true
 SMDsolvent "dimethylsulfoxide"
end
%pal nprocs 4 end
%tddft
 nroots 10
 maxdim 7
end
* xyzfile 0 1
