! pbe0 d3bj aug-cc-PVTZ RIJCOSX Opt
%maxcore 4000
%basis
 AuxJ "aug-cc-PVTZ/JK"
 AuxC "aug-cc-PVTZ/C"
 newGTO H "cc-PVTZ" end
 newAuxJGTO H "cc-PVTZ/JK" end
 newAuxCGTO H "cc-PVTZ/C" end
end
%cpcm
 SMD true
 SMDsolvent "dimethylsulfoxide"
end
%pal nprocs 4 end
* xyz 0 1
C          5.09230       -1.25950        0.47670
C          3.72080       -1.82440        0.13810
N          2.75390       -0.75860        0.14060
C          1.43760       -0.87360       -0.09840
C          0.87660       -2.13820       -0.40240
C         -0.44920       -2.28320       -0.66000
C         -1.33430       -1.17730       -0.64250
N         -2.63590       -1.33340       -0.95180
C         -3.33470       -2.57710       -1.13190
C         -3.66540       -3.25790        0.19870
C         -0.81200        0.10320       -0.32210
C          0.58050        0.25640       -0.04990
C          1.14260        1.55170        0.28670
O          2.34870        1.73790        0.51520
C          0.22180        2.69390        0.36320
C          0.72290        3.95310        0.69410
C         -0.11670        5.04450        0.77490
C         -1.47530        4.89440        0.52430
C         -1.98180        3.65440        0.19490
C         -1.14250        2.54320        0.11140
C         -1.71420        1.23940       -0.25260
O         -2.93300        1.16400       -0.47650
H          5.83590       -2.05210        0.47730
H          5.38230       -0.51000       -0.25560
H          5.07640       -0.79550        1.45980
H          3.44600       -2.59030        0.87700
H          3.75430       -2.30430       -0.85000
H          3.06260        0.19200        0.35820
H          1.52020       -3.00320       -0.42930
H         -0.83430       -3.26420       -0.88780
H         -3.18610       -0.47920       -0.83150
H         -2.75000       -3.25310       -1.76370
H         -4.26250       -2.34870       -1.66200
H         -4.27120       -2.59710        0.81390
H         -2.75440       -3.49350        0.74380
H         -4.21790       -4.17710        0.02310
H          1.78200        4.04550        0.88400
H          0.28120        6.01520        1.03230
H         -2.13390        5.74850        0.58650
H         -3.03350        3.51400       -0.00620
*


$new_job
! b2plyp aug-cc-PVTZ RIJCOSX SP
%maxcore 4000
%basis
 AuxJ "aug-cc-PVTZ/JK"
 AuxC "aug-cc-PVTZ/C"
 newGTO H "cc-PVTZ" end
 newAuxJGTO H "cc-PVTZ/JK" end
 newAuxCGTO H "cc-PVTZ/C" end
end
%cpcm
 SMD true
 SMDsolvent "dimethylsulfoxide"
end
%pal nprocs 4 end
%tddft
 nroots 10
 maxdim 7
end
* xyzfile 0 1
