! pbe0 d3bj aug-cc-PVTZ RIJCOSX Opt
%maxcore 4000
%basis
 AuxJ "aug-cc-PVTZ/JK"
 AuxC "aug-cc-PVTZ/C"
 newGTO H "cc-PVTZ" end
 newAuxJGTO H "cc-PVTZ/JK" end
 newAuxCGTO H "cc-PVTZ/C" end
end
%cpcm
 SMD true
 SMDsolvent "ethyl ethanoate"
end
%pal nprocs 4 end
* xyz 0 1
C          6.00800       -1.34260       -1.22880
C          5.21890       -0.80620       -0.03760
N          3.90970       -1.43290        0.03460
C          3.35420       -1.57350        1.36200
C          2.74890       -0.26570        1.91560
N          1.73210        0.20930        1.00100
C          0.40310       -0.05780        1.18880
C         -0.14970       -0.07930        2.48490
C         -1.48590       -0.29890        2.68790
C         -2.36720       -0.46370        1.60760
N         -3.67750       -0.72490        1.93130
N         -4.64320       -0.58500        1.17840
C         -4.74830        0.09040       -0.00810
C         -4.43650        1.45890       -0.08820
C         -4.74720        2.17840       -1.21670
C         -5.36380        1.55050       -2.30350
C         -5.65730        2.28430       -3.46960
N         -5.89020        2.88240       -4.42150
C         -5.68680        0.19100       -2.22650
C         -5.40010       -0.52380       -1.08890
C         -1.82560       -0.45060        0.31340
C         -0.48070       -0.26710        0.11350
C          2.30350        0.42710       -0.31020
C          2.91740       -0.87350       -0.86210
H          7.02060       -0.94820       -1.20970
H          6.04940       -2.42700       -1.18300
H          5.54700       -1.05580       -2.17000
H          5.75940       -1.05660        0.87810
H          5.16460        0.29190       -0.10300
H          4.12640       -1.94290        2.03870
H          2.55590       -2.32250        1.30800
H          3.52820        0.49940        2.00220
H          2.33380       -0.45260        2.90270
H          0.47940        0.09910        3.34290
H         -1.89600       -0.30810        3.68580
H         -3.96230        1.93800        0.75670
H         -4.50620        3.23000       -1.27590
H         -6.16810       -0.28860       -3.06650
H         -5.64540       -1.57270       -1.01910
H         -2.46280       -0.64390       -0.53780
H         -0.10890       -0.31400       -0.89770
H          1.55860        0.83290       -0.99180
H          3.09320        1.17930       -0.19740
H          2.12520       -1.61910       -0.98530
H          3.37210       -0.68910       -1.83510
*


$new_job
! b2plyp aug-cc-PVTZ RIJCOSX SP
%maxcore 4000
%basis
 AuxJ "aug-cc-PVTZ/JK"
 AuxC "aug-cc-PVTZ/C"
 newGTO H "cc-PVTZ" end
 newAuxJGTO H "cc-PVTZ/JK" end
 newAuxCGTO H "cc-PVTZ/C" end
end
%cpcm
 SMD true
 SMDsolvent "ethyl ethanoate"
end
%pal nprocs 4 end
%tddft
 nroots 10
 maxdim 7
end
* xyzfile 0 1
