! pbe0 d3bj aug-cc-PVTZ RIJCOSX Opt
%maxcore 4000
%basis
 AuxJ "aug-cc-PVTZ/JK"
 AuxC "aug-cc-PVTZ/C"
 newGTO H "cc-PVTZ" end
 newAuxJGTO H "cc-PVTZ/JK" end
 newAuxCGTO H "cc-PVTZ/C" end
end
%cpcm
 SMD true
 SMDsolvent "ethyl ethanoate"
end
%pal nprocs 4 end
* xyz 0 1
C         -7.87220       -0.08940       -0.34830
C         -6.69530        0.77130        0.09630
N         -5.55330       -0.04670        0.46510
C         -4.65500        0.63610        1.37970
C         -3.31670       -0.08860        1.46470
N         -2.63950       -0.01170        0.18740
C         -1.28580       -0.04200        0.07770
C         -0.64020        0.34390       -1.11430
C          0.72570        0.31330       -1.22150
C          1.52560       -0.10340       -0.14690
N          2.87650       -0.08790       -0.34450
N          3.61090       -0.53370        0.59330
C          4.96600       -0.38990        0.50620
C          5.77500       -1.36690        1.10410
C          7.14000       -1.20300        1.16020
C          7.72030       -0.05030        0.63770
C          9.19850        0.16980        0.71680
F          9.72600        0.57470       -0.45520
F          9.88650       -0.92320        1.07960
F          9.52810        1.12910        1.61050
C          6.92920        0.93660        0.05510
C          5.56590        0.76770       -0.01620
C          0.88770       -0.48870        1.04620
C         -0.47600       -0.45910        1.15520
C         -3.51080        0.07960       -0.96360
C         -4.83340       -0.63020       -0.65630
H         -8.10670       -0.81430        0.42580
H         -7.64950       -0.62770       -1.26560
H         -8.74290        0.53750       -0.52150
H         -6.44320        1.50250       -0.69170
H         -6.99200        1.33210        0.98600
H         -4.46980        1.68230        1.07810
H         -5.12180        0.65120        2.36950
H         -2.70470        0.39860        2.22730
H         -3.48790       -1.13130        1.76320
H         -1.22100        0.69510       -1.95210
H          1.21280        0.61880       -2.13470
H          5.30980       -2.25630        1.49970
H          7.76310       -1.96070        1.61020
H          7.39440        1.82480       -0.34650
H          4.93180        1.52070       -0.45870
H          1.50150       -0.81950        1.87060
H         -0.93330       -0.78780        2.07510
H         -3.70390        1.12870       -1.23100
H         -3.04020       -0.41240       -1.81780
H         -4.61890       -1.67990       -0.42320
H         -5.46130       -0.60960       -1.54760
*


$new_job
! b2plyp aug-cc-PVTZ RIJCOSX SP
%maxcore 4000
%basis
 AuxJ "aug-cc-PVTZ/JK"
 AuxC "aug-cc-PVTZ/C"
 newGTO H "cc-PVTZ" end
 newAuxJGTO H "cc-PVTZ/JK" end
 newAuxCGTO H "cc-PVTZ/C" end
end
%cpcm
 SMD true
 SMDsolvent "ethyl ethanoate"
end
%pal nprocs 4 end
%tddft
 nroots 10
 maxdim 7
end
* xyzfile 0 1
