! pbe0 d3bj aug-cc-PVTZ RIJCOSX Opt
%maxcore 4000
%basis
 AuxJ "aug-cc-PVTZ/JK"
 AuxC "aug-cc-PVTZ/C"
 newGTO H "cc-PVTZ" end
 newAuxJGTO H "cc-PVTZ/JK" end
 newAuxCGTO H "cc-PVTZ/C" end
end
%cpcm
 SMD true
 SMDsolvent "chloroform"
end
%pal nprocs 4 end
* xyz 0 1
C         -5.56620       -0.83330       -1.93730
C         -4.73330       -0.83400       -0.66140
C         -5.43510       -0.07860        0.46470
C         -4.61410       -0.03670        1.76010
N         -3.41360        0.75020        1.63400
C         -2.16200        0.31930        1.33650
C         -1.83690       -1.03420        1.28120
C         -0.55210       -1.46120        1.00460
C          0.47080       -0.55710        0.77210
C          0.19330        0.82300        0.82650
C          1.23020        1.75310        0.60050
C          0.98070        3.10860        0.65310
C         -0.30370        3.56730        0.93080
C         -1.32670        2.67720        1.15320
C         -1.12010        1.28610        1.10920
C          2.60050        1.29420        0.31380
O          3.52420        2.06230        0.13040
N          2.79040       -0.07600        0.27160
C          4.11550       -0.54090       -0.00670
C          4.70640       -0.25320       -1.22580
C          5.98810       -0.69700       -1.49010
C          6.68100       -1.43900       -0.54110
O          7.94230       -1.89680       -0.76310
C          6.07900       -1.73050        0.67940
C          4.80350       -1.27840        0.94600
C          1.81140       -1.05010        0.47270
O          2.08960       -2.22990        0.38720
H         -6.53270       -1.30130       -1.76330
H         -5.05570       -1.38220       -2.72430
H         -5.73620        0.18380       -2.28390
H         -3.76300       -0.37520       -0.86260
H         -4.55470       -1.86480       -0.34900
H         -6.39280       -0.55620        0.68020
H         -5.64070        0.94480        0.14010
H         -4.36020       -1.04850        2.07440
H         -5.22090        0.41600        2.55190
H         -3.58330        1.73770        1.53220
H         -2.59770       -1.77820        1.44890
H         -0.32370       -2.51530        0.96040
H          1.79580        3.79420        0.47830
H         -0.49550        4.62880        0.97350
H         -2.30480        3.08200        1.37230
H          4.16850        0.32290       -1.96280
H          6.45270       -0.46850       -2.44030
H          8.23870       -1.62360       -1.63970
H          6.62850       -2.30850        1.40480
H          4.33470       -1.50260        1.89150
*


$new_job
! b2plyp aug-cc-PVTZ RIJCOSX SP
%maxcore 4000
%basis
 AuxJ "aug-cc-PVTZ/JK"
 AuxC "aug-cc-PVTZ/C"
 newGTO H "cc-PVTZ" end
 newAuxJGTO H "cc-PVTZ/JK" end
 newAuxCGTO H "cc-PVTZ/C" end
end
%cpcm
 SMD true
 SMDsolvent "chloroform"
end
%pal nprocs 4 end
%tddft
 nroots 10
 maxdim 7
end
* xyzfile 0 1
