! pbe0 d3bj aug-cc-PVTZ RIJCOSX Opt
%maxcore 4000
%basis
 AuxJ "aug-cc-PVTZ/JK"
 AuxC "aug-cc-PVTZ/C"
 newGTO H "cc-PVTZ" end
 newAuxJGTO H "cc-PVTZ/JK" end
 newAuxCGTO H "cc-PVTZ/C" end
end
%cpcm
 SMD true
 SMDsolvent "benzene"
end
%pal nprocs 4 end
* xyz 0 1
C          3.82610       -1.04290       -0.45070
C          2.65860       -0.18290       -0.12530
N          1.46280       -0.63950       -0.25200
C          0.40430        0.17230        0.05230
C          0.61390        1.47530        0.49220
C         -0.46440        2.32290        0.80510
C         -1.74060        1.86010        0.67440
C         -2.00650        0.54180        0.23110
C         -3.32090        0.05470        0.09280
C         -3.55040       -1.22490       -0.33680
C         -2.47760       -2.07150       -0.64590
C         -1.18730       -1.62830       -0.52290
C         -0.92680       -0.31950       -0.08480
O          1.87140        1.96580        0.63110
C          2.95480        1.18920        0.33910
O          4.06100        1.65030        0.47100
H          3.48840       -2.01240       -0.80300
H          4.44960       -1.16120        0.43420
H          4.43740       -0.55630       -1.20900
H         -0.24810        3.32420        1.14200
H         -2.57570        2.50290        0.91100
H         -4.14540        0.71050        0.33230
H         -4.56170       -1.58940       -0.44000
H         -2.67630       -3.07810       -0.98250
H         -0.34680       -2.26270       -0.75550
*


$new_job
! b2plyp aug-cc-PVTZ RIJCOSX SP
%maxcore 4000
%basis
 AuxJ "aug-cc-PVTZ/JK"
 AuxC "aug-cc-PVTZ/C"
 newGTO H "cc-PVTZ" end
 newAuxJGTO H "cc-PVTZ/JK" end
 newAuxCGTO H "cc-PVTZ/C" end
end
%cpcm
 SMD true
 SMDsolvent "benzene"
end
%pal nprocs 4 end
%tddft
 nroots 10
 maxdim 7
end
* xyzfile 0 1
