! pbe0 d3bj aug-cc-PVTZ RIJCOSX Opt
%maxcore 4000
%basis
 AuxJ "aug-cc-PVTZ/JK"
 AuxC "aug-cc-PVTZ/C"
 newGTO H "cc-PVTZ" end
 newAuxJGTO H "cc-PVTZ/JK" end
 newAuxCGTO H "cc-PVTZ/C" end
end
%cpcm
 SMD true
 SMDsolvent "ethanol"
end
%pal nprocs 4 end
* xyz 0 1
C          2.71990       -0.42130        0.94490
C          3.67570       -0.01300        0.09700
C          5.09840       -0.06840        0.38340
C          5.57560        0.05520        1.67490
C          6.95490        0.04530        1.91220
N          7.85600       -0.06490        0.97630
C          7.43800       -0.19520       -0.29870
C          8.42320       -0.32390       -1.30040
C          8.06530       -0.48390       -2.60880
C          6.71020       -0.53000       -2.96690
C          5.73270       -0.40190       -2.01820
C          6.06110       -0.21460       -0.66090
C          1.28980       -0.36860        0.72630
C          0.43660       -0.85900        1.72150
C         -0.93090       -0.82050        1.57230
C         -1.51650       -0.30200        0.41290
C         -2.96140       -0.27850        0.30220
C         -3.66470       -0.07060       -0.81890
C         -5.11830       -0.09650       -0.89570
C         -5.72460       -0.76800       -1.93950
C         -7.11880       -0.89380       -1.96670
N         -7.91200       -0.39880       -1.05790
C         -7.36610        0.31890       -0.05590
C         -8.23800        0.89260        0.89350
C         -7.74790        1.67050        1.90370
C         -6.37120        1.92530        1.99340
C         -5.49880        1.36950        1.09820
C         -5.96250        0.52490        0.06970
C         -0.66530        0.19040       -0.58180
C          0.70180        0.15980       -0.42840
H          3.01480       -0.85860        1.89100
H          3.40320        0.38810       -0.86790
H          4.89560        0.19500        2.50100
H          7.33330        0.14530        2.92230
H          9.45610       -0.29780       -0.99060
H          8.82030       -0.58340       -3.37470
H          6.44030       -0.67190       -4.00330
H          4.69610       -0.45870       -2.31460
H          0.86320       -1.27050        2.62560
H         -1.56670       -1.20290        2.35850
H         -3.49470       -0.49620        1.21960
H         -3.15680        0.04060       -1.76810
H         -5.12680       -1.23480       -2.70850
H         -7.60050       -1.44260       -2.76670
H         -9.29430        0.70690        0.77800
H         -8.41720        2.11290        2.62690
H         -6.00220        2.57520        2.77350
H         -4.44540        1.59890        1.15690
H         -1.08340        0.61790       -1.48070
H          1.32370        0.55730       -1.21590
*


$new_job
! b2plyp aug-cc-PVTZ RIJCOSX SP
%maxcore 4000
%basis
 AuxJ "aug-cc-PVTZ/JK"
 AuxC "aug-cc-PVTZ/C"
 newGTO H "cc-PVTZ" end
 newAuxJGTO H "cc-PVTZ/JK" end
 newAuxCGTO H "cc-PVTZ/C" end
end
%cpcm
 SMD true
 SMDsolvent "ethanol"
end
%pal nprocs 4 end
%tddft
 nroots 10
 maxdim 7
end
* xyzfile 0 1
