! pbe0 d3bj aug-cc-PVTZ RIJCOSX Opt
%maxcore 4000
%basis
 AuxJ "aug-cc-PVTZ/JK"
 AuxC "aug-cc-PVTZ/C"
 newGTO H "cc-PVTZ" end
 newAuxJGTO H "cc-PVTZ/JK" end
 newAuxCGTO H "cc-PVTZ/C" end
end
%cpcm
 SMD true
 SMDsolvent "cyclohexane"
end
%pal nprocs 4 end
* xyz 0 1
C         -6.58760       -0.48380        1.36000
O         -5.61450       -1.46980        1.10460
C         -4.34300       -1.08650        0.85090
C         -3.42810       -2.11920        0.61090
C         -2.10950       -1.84640        0.34520
C         -1.64140       -0.52310        0.30610
C         -0.28270       -0.14940        0.04110
C          0.80920       -0.92550       -0.20370
C          0.82380       -2.33570       -0.25020
N          0.91060       -3.47950       -0.30280
C          2.08970       -0.29710       -0.43940
N          2.28410        0.97430       -0.44540
C          3.57970        1.29770       -0.68850
C          4.10060        2.58880       -0.75710
C          5.44430        2.75030       -1.01230
C          6.28030        1.65000       -1.20060
C          5.78810        0.36150       -1.13790
C          4.43840        0.18930       -0.88210
S          3.53290       -1.28580       -0.74410
C         -2.56900        0.50020        0.54490
C         -3.89410        0.23340        0.81320
H         -6.33770        0.10540        2.24770
H         -7.51520       -1.02540        1.53710
H         -6.71670        0.18380        0.50250
H         -3.78880       -3.13500        0.64140
H         -1.43030       -2.66270        0.16490
H         -0.08360        0.91550        0.03620
H          3.44400        3.43130       -0.60960
H          5.86100        3.74480       -1.06800
H          7.32970        1.80760       -1.39870
H          6.43180       -0.49200       -1.28310
H         -2.23590        1.52770        0.51940
H         -4.57030        1.05470        0.99160
*


$new_job
! b2plyp aug-cc-PVTZ RIJCOSX SP
%maxcore 4000
%basis
 AuxJ "aug-cc-PVTZ/JK"
 AuxC "aug-cc-PVTZ/C"
 newGTO H "cc-PVTZ" end
 newAuxJGTO H "cc-PVTZ/JK" end
 newAuxCGTO H "cc-PVTZ/C" end
end
%cpcm
 SMD true
 SMDsolvent "cyclohexane"
end
%pal nprocs 4 end
%tddft
 nroots 10
 maxdim 7
end
* xyzfile 0 1
