! pbe0 d3bj aug-cc-PVTZ RIJCOSX Opt
%maxcore 4000
%basis
 AuxJ "aug-cc-PVTZ/JK"
 AuxC "aug-cc-PVTZ/C"
 newGTO H "cc-PVTZ" end
 newAuxJGTO H "cc-PVTZ/JK" end
 newAuxCGTO H "cc-PVTZ/C" end
end
%cpcm
 SMD true
 SMDsolvent "dichloromethane"
end
%pal nprocs 4 end
* xyz 0 1
C         -6.46520        2.08390       -1.58440
O         -6.12750        1.03060       -0.71710
C         -4.81390        0.74840       -0.51950
C         -3.75080        1.41700       -1.10670
C         -2.44350        1.05040       -0.83850
C         -2.16020       -0.00060        0.02890
C         -0.82220       -0.43300        0.35120
C          0.33330        0.08060       -0.10850
C          1.59880       -0.44600        0.29460
N          1.81730       -1.44240        1.11760
C          3.16090       -1.56680        1.18390
C          3.74950       -0.61870        0.37870
C          5.12710       -0.30470        0.07940
C          6.16510       -1.03700        0.65970
C          7.47920       -0.73000        0.36810
C          7.78040        0.30630       -0.50200
C          6.75640        1.03760       -1.08170
C          5.43910        0.73750       -0.79580
O          2.73950        0.09470       -0.18700
C         -3.23790       -0.67710        0.62290
C         -4.54540       -0.32340        0.36550
O         -5.64270       -0.92700        0.89940
C         -5.44720       -1.99930        1.78710
H         -7.55330        2.12410       -1.58660
H         -6.10860        1.89830       -2.60310
H         -6.06910        3.04140       -1.23000
H         -3.93320        2.23630       -1.78400
H         -1.64340        1.59400       -1.31400
H         -0.74150       -1.26340        1.04010
H          0.37630        0.90890       -0.79910
H          3.61420       -2.31830        1.79670
H          5.93490       -1.84420        1.33730
H          8.27570       -1.30170        0.82150
H          8.80990        0.54240       -0.72670
H          6.98710        1.84590       -1.76020
H          4.63850        1.30510       -1.24560
H         -3.01670       -1.49130        1.29470
H         -4.92750       -2.83360        1.30410
H         -6.44480       -2.32020        2.08270
H         -4.88850       -1.69020        2.67680
*


$new_job
! b2plyp aug-cc-PVTZ RIJCOSX SP
%maxcore 4000
%basis
 AuxJ "aug-cc-PVTZ/JK"
 AuxC "aug-cc-PVTZ/C"
 newGTO H "cc-PVTZ" end
 newAuxJGTO H "cc-PVTZ/JK" end
 newAuxCGTO H "cc-PVTZ/C" end
end
%cpcm
 SMD true
 SMDsolvent "dichloromethane"
end
%pal nprocs 4 end
%tddft
 nroots 10
 maxdim 7
end
* xyzfile 0 1
