! pbe0 d3bj aug-cc-PVTZ RIJCOSX Opt
%maxcore 4000
%basis
 AuxJ "aug-cc-PVTZ/JK"
 AuxC "aug-cc-PVTZ/C"
 newGTO H "cc-PVTZ" end
 newAuxJGTO H "cc-PVTZ/JK" end
 newAuxCGTO H "cc-PVTZ/C" end
end
%cpcm
 SMD true
 SMDsolvent "acetonitrile"
end
%pal nprocs 4 end
* xyz 0 1
C         -3.61240        1.58710       -1.42270
C         -2.48820        0.91740       -0.69220
C         -1.66830        0.01100       -1.38200
C         -0.61870       -0.63810       -0.77460
C         -0.37560       -0.37370        0.57140
C          0.58850       -0.82390        1.53580
C          1.68550       -1.79960        1.28650
C          2.59730       -1.36620        0.14470
O          3.05360       -2.12520       -0.68530
N          2.88430       -0.04680        0.14210
N          3.79220        0.52220       -0.77280
C          0.28190       -0.16750        2.68320
O         -0.78850        0.65550        2.54580
C         -1.19700        0.53700        1.25990
C         -2.25470        1.18850        0.64410
H         -4.27630        0.84350       -1.86120
H         -3.22300        2.20260       -2.23300
H         -4.19000        2.21940       -0.75400
H         -1.87800       -0.17740       -2.42490
H          0.00270       -1.33320       -1.31810
H          2.29320       -1.92120        2.18590
H          1.27630       -2.77580        1.01650
H          2.55250        0.57610        0.86250
H          3.28610        0.83990       -1.60230
H          4.41180       -0.23070       -1.07660
H          0.73470       -0.20210        3.65560
H         -2.87020        1.88120        1.19610
*


$new_job
! b2plyp aug-cc-PVTZ RIJCOSX SP
%maxcore 4000
%basis
 AuxJ "aug-cc-PVTZ/JK"
 AuxC "aug-cc-PVTZ/C"
 newGTO H "cc-PVTZ" end
 newAuxJGTO H "cc-PVTZ/JK" end
 newAuxCGTO H "cc-PVTZ/C" end
end
%cpcm
 SMD true
 SMDsolvent "acetonitrile"
end
%pal nprocs 4 end
%tddft
 nroots 10
 maxdim 7
end
* xyzfile 0 1
