! pbe0 d3bj aug-cc-PVTZ RIJCOSX Opt
%maxcore 4000
%basis
 AuxJ "aug-cc-PVTZ/JK"
 AuxC "aug-cc-PVTZ/C"
 newGTO H "cc-PVTZ" end
 newAuxJGTO H "cc-PVTZ/JK" end
 newAuxCGTO H "cc-PVTZ/C" end
end
%cpcm
 SMD true
 SMDsolvent "diethyl ether"
end
%pal nprocs 4 end
* xyz 0 1
N          5.04780        1.96850        0.05600
C          3.97950        1.55200        0.04430
C          2.66360        1.03900        0.02980
C          2.30970       -0.00720        0.88330
C          1.02480       -0.50480        0.86890
C          0.06840        0.02690        0.00100
N         -1.22730       -0.47860       -0.01360
C         -2.36200        0.22810       -0.31140
C         -3.43530       -0.60580       -0.21380
C         -2.94140       -1.88190        0.14200
C         -1.58920       -1.76930        0.26720
C          0.42890        1.07230       -0.85220
C          1.71140        1.57600       -0.83810
H          3.04580       -0.41730        1.55870
H          0.75110       -1.29870        1.54620
H         -2.32730        1.27750       -0.52560
H         -4.46150       -0.34290       -0.37670
H         -3.52130       -2.77160        0.28660
H         -0.85720       -2.51950        0.49010
H         -0.29690        1.47640       -1.54060
H          1.98840        2.38110       -1.50220
*


$new_job
! b2plyp aug-cc-PVTZ RIJCOSX SP
%maxcore 4000
%basis
 AuxJ "aug-cc-PVTZ/JK"
 AuxC "aug-cc-PVTZ/C"
 newGTO H "cc-PVTZ" end
 newAuxJGTO H "cc-PVTZ/JK" end
 newAuxCGTO H "cc-PVTZ/C" end
end
%cpcm
 SMD true
 SMDsolvent "diethyl ether"
end
%pal nprocs 4 end
%tddft
 nroots 10
 maxdim 7
end
* xyzfile 0 1
