! pbe0 d3bj aug-cc-PVTZ RIJCOSX Opt
%maxcore 4000
%basis
 AuxJ "aug-cc-PVTZ/JK"
 AuxC "aug-cc-PVTZ/C"
 newGTO H "cc-PVTZ" end
 newAuxJGTO H "cc-PVTZ/JK" end
 newAuxCGTO H "cc-PVTZ/C" end
end
%cpcm
 SMD true
 SMDsolvent "ethyl ethanoate"
end
%pal nprocs 4 end
* xyz 0 1
O          8.19590       -0.94200       -1.56170
N          7.78780        0.07430       -1.02130
O          8.49700        1.03040       -0.74940
C          6.40970        0.14850       -0.69160
C          5.57270       -0.93670       -0.96120
C          4.24470       -0.87180       -0.63190
C          3.71340        0.28730       -0.02450
N          2.38650        0.44420        0.13610
N          1.61810       -0.41590        0.64710
C          0.27280       -0.25120        0.52110
C         -0.53920       -1.17130        1.20000
C         -1.90800       -1.11480        1.12080
C         -2.53320       -0.11220        0.33990
C         -1.71630        0.81450       -0.35620
C         -0.35120        0.73550       -0.26210
C         -2.34510        1.89360       -1.19560
C         -3.72150        1.45250       -1.66930
C         -4.53690        1.03270       -0.45480
N         -3.88710       -0.05450        0.23920
C         -4.72960       -0.92030        1.03080
C         -4.08860       -2.29190        1.18580
C         -2.74140       -2.11850        1.87040
C          4.56950        1.37960        0.22510
C          5.89900        1.30510       -0.09310
H          5.99660       -1.82100       -1.41270
H          3.57690       -1.69590       -0.83290
H         -0.06040       -1.93360        1.79530
H          0.27260        1.44030       -0.79240
H         -1.69960        2.12200       -2.04480
H         -2.43820        2.80730       -0.59980
H         -3.62320        0.60360       -2.34870
H         -4.23070        2.25950       -2.19630
H         -4.66920        1.89220        0.21900
H         -5.53010        0.69490       -0.76470
H         -4.90720       -0.47920        2.02270
H         -5.69640       -1.00980        0.52680
H         -3.94600       -2.73690        0.19930
H         -4.74210       -2.94240        1.76720
H         -2.89370       -1.77030        2.89690
H         -2.21030       -3.06980        1.92360
H          4.16080        2.26100        0.69420
H          6.57100        2.12650        0.10370
*


$new_job
! b2plyp aug-cc-PVTZ RIJCOSX SP
%maxcore 4000
%basis
 AuxJ "aug-cc-PVTZ/JK"
 AuxC "aug-cc-PVTZ/C"
 newGTO H "cc-PVTZ" end
 newAuxJGTO H "cc-PVTZ/JK" end
 newAuxCGTO H "cc-PVTZ/C" end
end
%cpcm
 SMD true
 SMDsolvent "ethyl ethanoate"
end
%pal nprocs 4 end
%tddft
 nroots 10
 maxdim 7
end
* xyzfile 0 1
