! pbe0 d3bj aug-cc-PVTZ RIJCOSX Opt
%maxcore 4000
%basis
 AuxJ "aug-cc-PVTZ/JK"
 AuxC "aug-cc-PVTZ/C"
 newGTO H "cc-PVTZ" end
 newAuxJGTO H "cc-PVTZ/JK" end
 newAuxCGTO H "cc-PVTZ/C" end
end
%cpcm
 SMD true
 SMDsolvent "ethyl ethanoate"
end
%pal nprocs 4 end
* xyz 0 1
F          8.44050       -1.01070       -0.13920
C          7.74970        0.12390       -0.33950
F          8.13480        0.57680       -1.55510
F          8.22750        1.01660        0.54590
C          6.26800       -0.06060       -0.24260
C          5.69920       -1.30190       -0.51900
C          4.33340       -1.45670       -0.46680
C          3.50930       -0.37660       -0.11830
N          2.15650       -0.53960       -0.20350
N          1.40450        0.09450        0.60390
C          0.05890        0.04500        0.38780
C         -0.56160       -0.55610       -0.72010
C         -1.92450       -0.54160       -0.87110
C         -2.74170        0.08560        0.10110
C         -2.12230        0.68400        1.22330
C         -0.75520        0.65730        1.35040
C         -2.95590        1.36050        2.27840
C         -4.35880        0.77270        2.29430
C         -4.92620        0.84060        0.88360
N         -4.09750        0.08890       -0.02880
C         -4.72940       -0.40340       -1.22990
C         -3.97530       -1.61000       -1.77010
C         -2.54760       -1.18660       -2.07990
C          4.09740        0.86990        0.15280
C          5.46250        1.02640        0.08440
H          6.33470       -2.13640       -0.77380
H          3.87900       -2.41330       -0.67120
H          0.06460       -1.03200       -1.46030
H         -0.28080        1.11420        2.20560
H         -2.47880        1.24480        3.25260
H         -3.01040        2.43300        2.06570
H         -5.00470        1.32110        2.98040
H         -4.31780       -0.26970        2.61570
H         -5.93330        0.41370        0.86030
H         -4.99870        1.89070        0.56280
H         -4.76690        0.38490       -1.99680
H         -5.75920       -0.68000       -0.98450
H         -4.47350       -1.98900       -2.66290
H         -3.97020       -2.39860       -1.01530
H         -2.54910       -0.47370       -2.91090
H         -1.94880       -2.04510       -2.38760
H          3.45220        1.69830        0.40260
H          5.91550        1.98350        0.29580
*


$new_job
! b2plyp aug-cc-PVTZ RIJCOSX SP
%maxcore 4000
%basis
 AuxJ "aug-cc-PVTZ/JK"
 AuxC "aug-cc-PVTZ/C"
 newGTO H "cc-PVTZ" end
 newAuxJGTO H "cc-PVTZ/JK" end
 newAuxCGTO H "cc-PVTZ/C" end
end
%cpcm
 SMD true
 SMDsolvent "ethyl ethanoate"
end
%pal nprocs 4 end
%tddft
 nroots 10
 maxdim 7
end
* xyzfile 0 1
