! m062x defgrid3 aug-cc-PVTZ RIJCOSX Opt
%maxcore 4000
%basis
 AuxJ "aug-cc-PVTZ/JK"
 AuxC "aug-cc-PVTZ/C"
 newGTO H "cc-PVTZ" end
 newAuxJGTO H "cc-PVTZ/JK" end
 newAuxCGTO H "cc-PVTZ/C" end
end
%cpcm
 SMD true
 SMDsolvent "n,n-dimethylformamide"
end
%pal nprocs 4 end
* xyz 0 1
C         -2.82150       -2.31600       -0.52420
N         -2.34630       -0.95930       -0.29970
C         -3.31610        0.05570       -0.21380
C         -4.67480       -0.26280       -0.30710
C         -5.63820        0.72560       -0.22610
C         -5.28100        2.05040       -0.05140
C         -3.93830        2.37360        0.04160
C         -2.96630        1.39530       -0.03870
C         -1.01900       -0.81700       -0.19380
C          0.02650       -1.83130       -0.27030
O          0.04390       -3.04580       -0.44680
C          1.04280       -0.80810       -0.05160
N          2.37350       -0.93840        0.02220
C          2.88680       -2.29040       -0.13710
C          3.31410        0.08570        0.23360
C          2.92730        1.41300        0.42350
C          3.87120        2.40040        0.62980
C          5.22180        2.09810        0.65450
C          5.61550        0.78540        0.46800
C          4.68050       -0.21160        0.26010
C         -0.00270        0.21620        0.02390
O         -0.01980        1.42500        0.19510
H         -3.45850       -2.63510        0.30220
H         -3.38190       -2.36850       -1.45870
H         -1.97410       -2.99420       -0.58860
H         -5.00960       -1.27710       -0.44140
H         -6.67990        0.44990       -0.30110
H         -6.03770        2.81740        0.01150
H         -3.63630        3.40100        0.17840
H         -1.93440        1.68880        0.03970
H          2.05930       -2.98100       -0.28080
H          3.54010       -2.34620       -1.00910
H          3.44030       -2.59040        0.75380
H          1.88820        1.69060        0.41040
H          3.54070        3.41810        0.77290
H          5.95640        2.87210        0.81620
H          6.66400        0.52620        0.48300
H          5.04340       -1.21540        0.11950
*


$new_job
! m062x defgrid3 aug-cc-PVTZ RIJCOSX SP
%maxcore 4000
%basis
 AuxJ "aug-cc-PVTZ/JK"
 AuxC "aug-cc-PVTZ/C"
 newGTO H "cc-PVTZ" end
 newAuxJGTO H "cc-PVTZ/JK" end
 newAuxCGTO H "cc-PVTZ/C" end
end
%cpcm
 SMD true
 SMDsolvent "n,n-dimethylformamide"
end
%pal nprocs 4 end
%tddft
 nroots 10
 maxdim 7
end
* xyzfile 0 1
