! pbe0 aug-cc-PVTZ RIJCOSX Opt
%maxcore 4000
%basis
 AuxJ "aug-cc-PVTZ/JK"
 AuxC "aug-cc-PVTZ/C"
 newGTO H "cc-PVTZ" end
 newAuxJGTO H "cc-PVTZ/JK" end
 newAuxCGTO H "cc-PVTZ/C" end
end
%cpcm
 SMD true
 SMDsolvent "dichloromethane"
end
%pal nprocs 4 end
* xyz 0 1
F          0.72380        3.39900        2.61910
B          0.91350        2.05130        2.60710
F          1.14070        1.54790        3.85390
O         -0.32270        1.40010        2.05040
C         -0.27780        0.65900        1.00080
C         -1.49040        0.07470        0.56860
C         -2.54740       -0.40390        0.22560
C         -3.76600       -0.97090       -0.19280
C         -3.84740       -1.64970       -1.41190
C         -5.04980       -2.19760       -1.81280
C         -6.17350       -2.07890       -1.00860
C         -6.09630       -1.40760        0.20250
C         -4.90110       -0.85190        0.61430
C          0.89140        0.40810        0.27860
C          2.07760        0.99670        0.71400
C          3.35730        0.77730        0.02690
C          4.54130        1.00820        0.73150
C          5.76580        0.80880        0.12520
C          5.82630        0.38700       -1.19380
C          4.65640        0.16970       -1.90530
C          3.42730        0.36000       -1.30310
O          2.11970        1.75080        1.75630
H         -2.96700       -1.73660       -2.03120
H         -5.11380       -2.72020       -2.75560
H         -7.11080       -2.51020       -1.32670
H         -6.97290       -1.31740        0.82620
H         -4.82870       -0.32640        1.55440
H          0.85920       -0.24490       -0.57350
H          4.47670        1.33690        1.75720
H          6.67530        0.98420        0.67950
H          6.78320        0.23290       -1.66970
H          4.70400       -0.14690       -2.93650
H          2.52610        0.21060       -1.87670
*


$new_job
! pbe0 aug-cc-PVTZ RIJCOSX SP
%maxcore 4000
%basis
 AuxJ "aug-cc-PVTZ/JK"
 AuxC "aug-cc-PVTZ/C"
 newGTO H "cc-PVTZ" end
 newAuxJGTO H "cc-PVTZ/JK" end
 newAuxCGTO H "cc-PVTZ/C" end
end
%cpcm
 SMD true
 SMDsolvent "dichloromethane"
end
%pal nprocs 4 end
%tddft
 nroots 10
 maxdim 7
end
* xyzfile 0 1
