! m062x defgrid3 aug-cc-PVTZ RIJCOSX Opt
%maxcore 4000
%basis
 AuxJ "aug-cc-PVTZ/JK"
 AuxC "aug-cc-PVTZ/C"
 newGTO H "cc-PVTZ" end
 newAuxJGTO H "cc-PVTZ/JK" end
 newAuxCGTO H "cc-PVTZ/C" end
end
%cpcm
 SMD true
 SMDsolvent "dichloromethane"
end
%pal nprocs 4 end
* xyz 0 1
C         -1.00590       -0.61600        2.10610
C         -0.82430       -0.80940        0.59740
C         -0.70850       -2.29480        0.24150
C          0.35590       -0.01940        0.07520
C         -0.04950        0.90770       -0.82140
C         -1.47290        0.86060       -1.00630
C         -2.32270        1.60350       -1.80920
C         -3.67690        1.31370       -1.76610
C         -4.16430        0.30930       -0.94260
C         -3.31160       -0.43630       -0.13640
C         -1.96300       -0.16070       -0.16770
S          1.35280        1.83120       -1.42690
O          1.59060        1.57500       -2.82150
O          1.30250        3.20400       -1.00210
C          2.48960        0.88190       -0.39640
C          3.85070        1.01580       -0.30260
C          4.54150        0.17220        0.56280
C          3.85550       -0.77500        1.30520
C          2.47840       -0.90500        1.20540
C          1.77630       -0.06850        0.34410
H         -1.08770        0.44300        2.33950
H         -0.16070       -1.02730        2.65140
H         -1.91260       -1.11600        2.43770
H         -1.61150       -2.81990        0.54310
H         -0.57990       -2.41280       -0.83180
H          0.14240       -2.74600        0.74480
H         -1.93030        2.38170       -2.44500
H         -4.36340        1.87620       -2.38110
H         -5.22420        0.10230       -0.92680
H         -3.70880       -1.21460        0.49870
H          4.36320        1.76090       -0.89060
H          5.61340        0.25730        0.65470
H          4.40100       -1.42460        1.97380
H          1.96480       -1.64980        1.79320
*


$new_job
! m062x defgrid3 aug-cc-PVTZ RIJCOSX SP
%maxcore 4000
%basis
 AuxJ "aug-cc-PVTZ/JK"
 AuxC "aug-cc-PVTZ/C"
 newGTO H "cc-PVTZ" end
 newAuxJGTO H "cc-PVTZ/JK" end
 newAuxCGTO H "cc-PVTZ/C" end
end
%cpcm
 SMD true
 SMDsolvent "dichloromethane"
end
%pal nprocs 4 end
%tddft
 nroots 10
 maxdim 7
end
* xyzfile 0 1
