! wb97x-d3 aug-cc-PVTZ RIJCOSX Opt
%maxcore 4000
%basis
 AuxJ "aug-cc-PVTZ/JK"
 AuxC "aug-cc-PVTZ/C"
 newGTO H "cc-PVTZ" end
 newAuxJGTO H "cc-PVTZ/JK" end
 newAuxCGTO H "cc-PVTZ/C" end
end
%cpcm
 SMD true
 SMDsolvent "cyclohexane"
end
%pal nprocs 4 end
* xyz 0 1
F         -0.24810       -1.64740       -1.94630
B         -0.02410       -1.38450       -0.61380
F          0.17410       -2.55790        0.07750
N         -1.23320       -0.61900       -0.01780
C         -2.48730       -1.04400        0.05700
C         -3.29420       -0.06750        0.65890
C         -2.47560        0.99680        0.95860
C         -1.17200        0.64600        0.52970
C          0.02230        1.34530        0.59030
C          1.19590        0.79430        0.10240
C          2.51470        1.30920        0.05800
C          3.29980        0.34520       -0.53110
C          2.45810       -0.73450       -0.83550
N          1.21500       -0.46570       -0.45960
H         -2.76280       -2.01260       -0.31430
H         -4.34690       -0.15340        0.84190
H         -2.74500        1.92360        1.42590
H          0.03880        2.33360        1.02470
H          2.81590        2.27180        0.42210
H          4.35250        0.39110       -0.72820
H          2.70190       -1.67060       -1.30040
*


$new_job
! wb97x-d3 aug-cc-PVTZ RIJCOSX SP
%maxcore 4000
%basis
 AuxJ "aug-cc-PVTZ/JK"
 AuxC "aug-cc-PVTZ/C"
 newGTO H "cc-PVTZ" end
 newAuxJGTO H "cc-PVTZ/JK" end
 newAuxCGTO H "cc-PVTZ/C" end
end
%cpcm
 SMD true
 SMDsolvent "cyclohexane"
end
%pal nprocs 4 end
%tddft
 nroots 10
 maxdim 7
end
* xyzfile 0 1
