! x3lyp aug-cc-PVTZ RIJCOSX Opt
%maxcore 4000
%basis
 AuxJ "aug-cc-PVTZ/JK"
 AuxC "aug-cc-PVTZ/C"
 newGTO H "cc-PVTZ" end
 newAuxJGTO H "cc-PVTZ/JK" end
 newAuxCGTO H "cc-PVTZ/C" end
end
%cpcm
 SMD true
 SMDsolvent "benzene"
end
%pal nprocs 4 end
* xyz 0 1
C         -4.49800        0.16580        0.04130
C         -3.64810        1.25580        0.17290
C         -2.28180        1.07950        0.13650
C         -1.74760       -0.20460       -0.03390
N         -0.39610       -0.49050       -0.08470
N          0.39620        0.49240        0.06880
C          1.74770        0.20610        0.01640
C          2.61130        1.28860        0.21030
C          3.97790        1.09780        0.17750
C          4.49790       -0.16760       -0.04920
C          3.64700       -1.24720       -0.24490
C          2.28080       -1.06910       -0.21380
C         -2.61030       -1.29680       -0.16830
C         -3.97690       -1.10790       -0.12920
H         -5.56800        0.31100        0.07160
H         -4.06100        2.24580        0.30460
H         -1.60150        1.91160        0.23620
H          2.18550        2.26460        0.38580
H          4.64350        1.93500        0.32870
H          5.56780       -0.31440       -0.07400
H          4.05900       -2.23040       -0.42170
H          1.59970       -1.89300       -0.36320
H         -2.18350       -2.27940       -0.29950
H         -4.64170       -1.95310       -0.23180
*


$new_job
! x3lyp aug-cc-PVTZ RIJCOSX SP
%maxcore 4000
%basis
 AuxJ "aug-cc-PVTZ/JK"
 AuxC "aug-cc-PVTZ/C"
 newGTO H "cc-PVTZ" end
 newAuxJGTO H "cc-PVTZ/JK" end
 newAuxCGTO H "cc-PVTZ/C" end
end
%cpcm
 SMD true
 SMDsolvent "benzene"
end
%pal nprocs 4 end
%tddft
 nroots 10
 maxdim 7
end
* xyzfile 0 1
