! pbe0 d3bj aug-cc-PVTZ RIJCOSX Opt
%maxcore 4000
%basis
 AuxJ "aug-cc-PVTZ/JK"
 AuxC "aug-cc-PVTZ/C"
 newGTO H "cc-PVTZ" end
 newAuxJGTO H "cc-PVTZ/JK" end
 newAuxCGTO H "cc-PVTZ/C" end
end
%cpcm
 SMD true
 SMDsolvent "dimethylsulfoxide"
end
%pal nprocs 4 end
* xyz 0 1
C         -6.40460        1.20310        0.64210
C         -5.24970        0.46740        0.07220
C         -5.28390       -0.60600       -0.78920
N         -4.10750       -1.10170       -1.17240
C         -3.10180       -0.47260       -0.65330
N         -1.84160       -0.77160       -0.88030
N         -0.94070       -0.06400       -0.28470
C          0.33600       -0.36430       -0.52760
C          0.92970       -1.31870       -1.34880
C          2.31270       -1.28290       -1.30880
C          2.81780       -0.30790       -0.46080
C          4.18450       -0.01940       -0.19830
C          4.70860        0.93560        0.64110
C          6.11230        0.94260        0.65870
C          6.65350        0.00020       -0.16130
S          5.45820       -0.92080       -0.97660
S          1.54470        0.58790        0.30300
S         -3.62590        0.89480        0.43750
H         -7.33680        0.75810        0.30210
H         -6.37820        2.24890        0.33630
H         -6.37380        1.17710        1.73100
H         -6.18500       -1.05910       -1.16430
H          0.33790       -1.99490       -1.93880
H          2.95460       -1.93830       -1.87160
H          4.09050        1.60000        1.21750
H          6.69910        1.61820        1.25460
H          7.68910       -0.21160       -0.33850
*


$new_job
! b2gp-plyp aug-cc-PVTZ RIJCOSX SP
%maxcore 4000
%basis
 AuxJ "aug-cc-PVTZ/JK"
 AuxC "aug-cc-PVTZ/C"
 newGTO H "cc-PVTZ" end
 newAuxJGTO H "cc-PVTZ/JK" end
 newAuxCGTO H "cc-PVTZ/C" end
end
%cpcm
 SMD true
 SMDsolvent "dimethylsulfoxide"
end
%pal nprocs 4 end
%tddft
 nroots 10
 maxdim 7
end
* xyzfile 0 1
