! wb97x-d3 aug-cc-PVTZ RIJCOSX Opt
%maxcore 4000
%basis
 AuxJ "aug-cc-PVTZ/JK"
 AuxC "aug-cc-PVTZ/C"
 newGTO H "cc-PVTZ" end
 newAuxJGTO H "cc-PVTZ/JK" end
 newAuxCGTO H "cc-PVTZ/C" end
end
%cpcm
 SMD true
 SMDsolvent "ethanol"
end
%pal nprocs 4 end
* xyz 0 1
C          7.12240        0.31380        0.93620
C          7.04720       -0.89500        0.26000
C          5.82560       -1.30360       -0.24170
C          4.71310       -0.48310       -0.04800
C          3.39440       -0.87590       -0.56410
C          2.28230       -0.06300       -0.35560
C          1.04600       -0.46030       -0.85190
C         -0.14230        0.38970       -0.67970
C         -0.06840        1.71650       -1.09430
C         -1.16310        2.55170       -1.02380
C         -2.38110        2.08790       -0.52440
C         -3.53690        2.91930       -0.45830
C         -4.70800        2.45620        0.03560
C         -4.82820        1.11880        0.51500
C         -6.02550        0.62130        1.03210
C         -6.11000       -0.67930        1.49390
C         -5.00690       -1.51200        1.45450
C         -3.79000       -1.05750        0.94430
C         -2.62640       -1.87890        0.90620
C         -1.45830       -1.42460        0.39620
C         -1.33990       -0.10470       -0.13390
C         -2.46940        0.75050       -0.06460
C         -3.69360        0.27110        0.46340
C          0.98770       -1.66310       -1.55740
C          2.15180       -2.39780       -1.71110
N          3.32310       -2.02770       -1.23060
N          4.78920        0.67740        0.60100
C          5.95910        1.05720        1.07510
H          8.05560        0.67050        1.34400
H          7.92850       -1.50670        0.12780
H          5.70410       -2.23170       -0.77590
H          2.39840        0.85350        0.20020
H          0.86310        2.08330       -1.50140
H         -1.08620        3.57430       -1.36450
H         -3.45120        3.93570       -0.81640
H         -5.58000        3.09330        0.08060
H         -6.89140        1.26690        1.06840
H         -7.04520       -1.04710        1.89090
H         -5.07850       -2.52610        1.82120
H         -2.69730       -2.88080        1.30590
H         -0.58400       -2.05870        0.39990
H          0.05890       -2.00290       -1.99000
H          2.14800       -3.33640       -2.25140
H          5.96260        2.00800        1.59360
*


$new_job
! wb97x-d3 aug-cc-PVTZ RIJCOSX SP
%maxcore 4000
%basis
 AuxJ "aug-cc-PVTZ/JK"
 AuxC "aug-cc-PVTZ/C"
 newGTO H "cc-PVTZ" end
 newAuxJGTO H "cc-PVTZ/JK" end
 newAuxCGTO H "cc-PVTZ/C" end
end
%cpcm
 SMD true
 SMDsolvent "ethanol"
end
%pal nprocs 4 end
%tddft
 nroots 10
 maxdim 7
end
* xyzfile 0 1
