! pbe0 d3bj aug-cc-PVTZ RIJCOSX Opt
%maxcore 4000
%basis
 AuxJ "aug-cc-PVTZ/JK"
 AuxC "aug-cc-PVTZ/C"
 newGTO H "cc-PVTZ" end
 newAuxJGTO H "cc-PVTZ/JK" end
 newAuxCGTO H "cc-PVTZ/C" end
end
%cpcm
 SMD true
 SMDsolvent "ethanol"
end
%pal nprocs 4 end
* xyz 0 1
C         -5.31350       -0.67230        1.61530
C         -4.98860       -1.00350        0.15820
N         -4.31760        0.08600       -0.51830
C         -5.17770        1.01910       -1.21330
C         -5.38980        0.63450       -2.67850
C         -2.96420        0.22450       -0.49050
C         -2.30650        1.20300       -1.27640
C         -0.94740        1.34780       -1.25280
C         -0.13810        0.52510       -0.45370
C          1.27010        0.60840       -0.37510
C          1.97440       -0.24100        0.43220
C          3.41400       -0.15410        0.51230
N          4.13550        0.72660       -0.14420
C          5.42960        0.47250        0.20380
C          6.61000        1.09780       -0.19030
C          7.79230        0.61980        0.33000
C          7.82310       -0.45530        1.22370
C          6.66850       -1.09120        1.63080
C          5.47290       -0.61740        1.11380
N          4.17210       -0.98910        1.28630
C          1.27570       -1.24620        1.22220
O          1.80080       -2.05190        1.96550
O         -0.07990       -1.29110        1.12290
C         -0.78570       -0.45320        0.32350
C         -2.16100       -0.59690        0.31240
H         -5.82200       -1.51070        2.08350
H         -5.96020        0.20030        1.67140
H         -4.40520       -0.45840        2.17180
H         -5.91620       -1.21230       -0.38130
H         -4.37230       -1.90330        0.10310
H         -4.76340        2.02720       -1.14250
H         -6.14280        1.03090       -0.70010
H         -5.84560       -0.35020       -2.74970
H         -4.44230        0.60850       -3.20990
H         -6.04430        1.35450       -3.16240
H         -2.87500        1.84980       -1.92280
H         -0.47230        2.10160       -1.86230
H          1.80920        1.34470       -0.95160
H          6.58540        1.92670       -0.87970
H          8.72530        1.08330        0.04380
H          8.77620       -0.79370        1.60290
H          6.69150       -1.92120        2.32110
H          3.77900       -1.72240        1.86020
H         -2.57410       -1.35710        0.95190
*


$new_job
! wb2plyp aug-cc-PVTZ RIJCOSX SP
%maxcore 4000
%basis
 AuxJ "aug-cc-PVTZ/JK"
 AuxC "aug-cc-PVTZ/C"
 newGTO H "cc-PVTZ" end
 newAuxJGTO H "cc-PVTZ/JK" end
 newAuxCGTO H "cc-PVTZ/C" end
end
%cpcm
 SMD true
 SMDsolvent "ethanol"
end
%pal nprocs 4 end
%tddft
 nroots 10
 maxdim 7
end
* xyzfile 0 1
