! x3lyp aug-cc-PVTZ RIJCOSX Opt
%maxcore 4000
%basis
 AuxJ "aug-cc-PVTZ/JK"
 AuxC "aug-cc-PVTZ/C"
 newGTO H "cc-PVTZ" end
 newAuxJGTO H "cc-PVTZ/JK" end
 newAuxCGTO H "cc-PVTZ/C" end
end
%cpcm
 SMD true
 SMDsolvent "dichloromethane"
end
%pal nprocs 4 end
* xyz 0 1
O          1.37360       -3.19720        0.27300
N          0.43480       -2.34810        0.16420
C          0.68430       -1.00440        0.07990
C          2.06010       -0.58820        0.10840
C          2.45480        0.68660       -0.04490
C          3.81500        1.17730       -0.01470
C          4.03890        2.54900       -0.17530
C          5.31730        3.06950       -0.14920
C          6.40480        2.23130        0.03690
C          6.20080        0.86930        0.19610
C          4.92380        0.34560        0.17150
N         -0.28860       -0.11830       -0.00780
C         -1.55630       -0.49690       -0.04370
N         -2.54310        0.44490       -0.11120
C         -2.47310        1.83250       -0.12240
C         -3.65380        2.53130       -0.38160
C         -3.66330        3.91180       -0.39780
C         -2.49840        4.62010       -0.15350
C         -1.32800        3.93050        0.11450
C         -1.30690        2.54860        0.13460
C         -1.89660       -1.87410       -0.01220
C         -0.86350       -2.77240        0.12310
C         -1.05330       -4.24890        0.24110
C         -2.49650       -4.60850        0.56160
C         -3.42190       -3.84490       -0.37670
C         -3.32360       -2.34580       -0.10360
H          2.75490       -1.40150        0.25770
H          1.69090        1.43460       -0.21110
H          3.19350        3.20660       -0.32130
H          5.46950        4.13190       -0.27410
H          7.40580        2.63640        0.05730
H          7.04650        0.21260        0.34060
H          4.78350       -0.71650        0.29630
H         -3.47930        0.08000       -0.20720
H         -4.56780        1.98400       -0.57170
H         -4.58500        4.43650       -0.60230
H         -2.50570        5.69930       -0.16860
H         -0.41720        4.47550        0.31530
H         -0.40160        2.00990        0.35070
H         -0.73870       -4.71330       -0.69920
H         -0.36190       -4.61450        1.00560
H         -2.64230       -5.68350        0.45150
H         -2.72490       -4.34050        1.59530
H         -4.45570       -4.16960       -0.24700
H         -3.13190       -4.04740       -1.40980
H         -3.83910       -1.80770       -0.90550
H         -3.83470       -2.11390        0.83780
*


$new_job
! x3lyp aug-cc-PVTZ RIJCOSX SP
%maxcore 4000
%basis
 AuxJ "aug-cc-PVTZ/JK"
 AuxC "aug-cc-PVTZ/C"
 newGTO H "cc-PVTZ" end
 newAuxJGTO H "cc-PVTZ/JK" end
 newAuxCGTO H "cc-PVTZ/C" end
end
%cpcm
 SMD true
 SMDsolvent "dichloromethane"
end
%pal nprocs 4 end
%tddft
 nroots 10
 maxdim 7
end
* xyzfile 0 1
